; EXPECT: unsat
(set-logic ALL)
(set-option :incremental false)
(declare-sort A 0)
(declare-sort B 0)
(declare-fun x () A)
(declare-fun y () A)
(declare-fun a () A)
(declare-fun b () A)
(declare-fun f1 () A)
(declare-fun f2 () A)
(declare-fun f (A) A)
(assert (and (or (and (= x a) (= y a)) (and (= x b) (= y b))) (not (= f1 f2)) (= f1 (f x)) (= f2 (f y))))
(check-sat)
